20	5
0	3	2	1	3
1	1	12
2	1	14
3	2	10	14
4	2	11	5
5	1	15
6	1	8
7	1	19
8	1	20
9	1	8
10	2	18	7
11	3	15	18	14
12	1	17
13	1	5
14	1	16
15	1	9
16	1	6
17	2	4	10
18	2	16	9
19	1	13
20	1	21
21	0
0	0	0	0	0	0	0
1	10	4	1	4	4	3
2	10	5	4	5	3	4
3	5	3	2	1	1	4
4	9	5	2	5	4	3
5	9	5	5	2	4	4
6	7	3	2	2	3	5
7	5	3	4	3	3	5
8	10	3	4	2	5	4
9	4	1	1	2	1	3
10	7	3	2	2	1	5
11	3	4	2	3	4	4
12	2	5	5	3	2	5
13	2	3	1	5	2	4
14	9	5	3	3	3	3
15	6	2	3	4	2	4
16	8	2	1	3	4	4
17	10	5	2	2	4	1
18	8	1	2	5	3	5
19	3	3	5	3	3	5
20	7	3	1	1	4	2
21	0	0	0	0	0	0
7	7	8	7	8
